seeds/non-incremental/QF_NIA/20170427-VeryMax/ITS/From_AProVE_2014__RSA.jar-obl-17__p11924_terminationG_0.smt2
(set-info :smt-lib-version 2.6)
(set-logic QF_NIA)
(set-info :source |
Generated by: Cristina Borralleras, Daniel Larraz, Albert Oliveras, Enric Rodriguez-Carbonell, Albert Rubio
Generated on: 2017-04-27
Generator: VeryMax
Application: Termination proving
Target solver: barcelogic
|)
(set-info :license "https://creativecommons.org/licenses/by/4.0/")
(set-info :category "industrial")
(set-info :status unknown)
(declare-fun Nl2arg11 () Int)
(declare-fun Nl2arg21 () Int)
(declare-fun Nl2arg31 () Int)
(declare-fun Nl2arg41 () Int)
(declare-fun Nl2arg51 () Int)
(declare-fun Nl2arg81 () Int)
(declare-fun Nl2arg91 () Int)
(declare-fun Nl2arg101 () Int)
(declare-fun Nl2arg111 () Int)
(declare-fun Nl2arg121 () Int)
(declare-fun Nl2arg131 () Int)
(declare-fun Nl2arg141 () Int)
(declare-fun Nl2arg151 () Int)
(declare-fun Nl2arg161 () Int)
(declare-fun Nl2arg171 () Int)
(declare-fun Nl2arg181 () Int)
(declare-fun Nl2arg191 () Int)
(declare-fun Nl2arg12 () Int)
(declare-fun Nl2arg22 () Int)
(declare-fun Nl2arg32 () Int)
(declare-fun Nl2arg42 () Int)
(declare-fun Nl2arg52 () Int)
(declare-fun Nl2arg82 () Int)
(declare-fun Nl2arg92 () Int)
(declare-fun Nl2arg102 () Int)
(declare-fun Nl2arg112 () Int)
(declare-fun Nl2arg122 () Int)
(declare-fun Nl2arg132 () Int)
(declare-fun Nl2arg142 () Int)
(declare-fun Nl2arg152 () Int)
(declare-fun Nl2arg162 () Int)
(declare-fun Nl2arg172 () Int)
(declare-fun Nl2arg182 () Int)
(declare-fun Nl2arg192 () Int)
(declare-fun lam0n0 () Int)
(declare-fun lam0n1 () Int)
(declare-fun lam0n2 () Int)
(declare-fun lam0n3 () Int)
(declare-fun lam0n4 () Int)
(declare-fun lam0n5 () Int)
(declare-fun lam0n6 () Int)
(declare-fun lam0n7 () Int)
(declare-fun lam0n8 () Int)
(declare-fun lam0n14 () Int)
(declare-fun lam0n15 () Int)
(declare-fun lam0n10 () Int)
(declare-fun lam0n11 () Int)
(declare-fun lam0n12 () Int)
(declare-fun lam0n13 () Int)
(declare-fun Nl2CT1 () Int)
(declare-fun Nl2CT2 () Int)
(declare-fun lam0n9 () Int)
(declare-fun lam1n0 () Int)
(declare-fun lam1n1 () Int)
(declare-fun lam1n2 () Int)
(declare-fun lam1n3 () Int)
(declare-fun lam1n4 () Int)
(declare-fun lam1n5 () Int)
(declare-fun lam1n6 () Int)
(declare-fun lam1n7 () Int)
(declare-fun lam1n8 () Int)
(declare-fun lam1n14 () Int)
(declare-fun lam1n15 () Int)
(declare-fun lam1n10 () Int)
(declare-fun lam1n11 () Int)
(declare-fun lam1n12 () Int)
(declare-fun lam1n13 () Int)
(declare-fun lam1n9 () Int)
(declare-fun lam2n0 () Int)
(declare-fun lam2n1 () Int)
(declare-fun lam2n2 () Int)
(declare-fun lam2n3 () Int)
(declare-fun lam2n4 () Int)
(declare-fun lam2n5 () Int)
(declare-fun lam2n6 () Int)
(declare-fun lam2n7 () Int)
(declare-fun lam2n8 () Int)
(declare-fun lam2n14 () Int)
(declare-fun lam2n15 () Int)
(declare-fun lam2n10 () Int)
(declare-fun lam2n11 () Int)
(declare-fun lam2n12 () Int)
(declare-fun lam2n13 () Int)
(declare-fun lam2n9 () Int)
(declare-fun lam3n0 () Int)
(declare-fun lam3n1 () Int)
(declare-fun lam3n2 () Int)
(declare-fun lam4n0 () Int)
(declare-fun lam4n1 () Int)
(declare-fun lam4n2 () Int)
(declare-fun undef1450 () Int)
(declare-fun undef20 () Int)
(declare-fun undef30 () Int)
(declare-fun undef33 () Int)
(declare-fun undef34 () Int)
(declare-fun undef35 () Int)
(declare-fun undef36 () Int)
(declare-fun undef37 () Int)
(declare-fun undef38 () Int)
(declare-fun lam8n0 () Int)
(declare-fun lam8n1 () Int)
(declare-fun lam8n2 () Int)
(declare-fun lam8n3 () Int)
(declare-fun lam8n4 () Int)
(declare-fun lam8n5 () Int)
(declare-fun lam8n6 () Int)
(declare-fun lam8n7 () Int)
(declare-fun lam8n8 () Int)
(declare-fun lam8n14 () Int)
(declare-fun lam8n15 () Int)
(declare-fun lam8n10 () Int)
(declare-fun lam8n11 () Int)
(declare-fun lam8n12 () Int)
(declare-fun lam8n13 () Int)
(declare-fun RFN1_CT () Int)
(declare-fun RFN1_arg1 () Int)
(declare-fun RFN1_arg2 () Int)
(declare-fun RFN1_arg3 () Int)
(declare-fun RFN1_arg4 () Int)
(declare-fun RFN1_arg5 () Int)
(declare-fun RFN1_arg8 () Int)
(declare-fun RFN1_arg9 () Int)
(declare-fun RFN1_arg10 () Int)
(declare-fun RFN1_arg12 () Int)
(declare-fun RFN1_arg13 () Int)
(declare-fun RFN1_arg14 () Int)
(declare-fun RFN1_arg15 () Int)
(declare-fun RFN1_arg16 () Int)
(declare-fun RFN1_arg17 () Int)
(declare-fun RFN1_arg18 () Int)
(declare-fun RFN1_arg19 () Int)
(declare-fun RFN1_arg11 () Int)
(declare-fun lam8n9 () Int)
(declare-fun lam6n0 () Int)
(declare-fun lam6n1 () Int)
(declare-fun lam6n2 () Int)
(declare-fun lam6n3 () Int)
(declare-fun lam6n4 () Int)
(declare-fun lam6n5 () Int)
(declare-fun lam6n6 () Int)
(declare-fun lam6n7 () Int)
(declare-fun lam6n8 () Int)
(declare-fun lam6n14 () Int)
(declare-fun lam6n15 () Int)
(declare-fun lam6n10 () Int)
(declare-fun lam6n11 () Int)
(declare-fun lam6n12 () Int)
(declare-fun lam6n13 () Int)
(declare-fun lam6n9 () Int)
(declare-fun lam7n0 () Int)
(declare-fun lam7n1 () Int)
(declare-fun lam7n2 () Int)
(declare-fun lam7n3 () Int)
(declare-fun lam7n4 () Int)
(declare-fun lam7n5 () Int)
(declare-fun lam7n6 () Int)
(declare-fun lam7n7 () Int)
(declare-fun lam7n8 () Int)
(declare-fun lam7n14 () Int)
(declare-fun lam7n15 () Int)
(declare-fun lam7n10 () Int)
(declare-fun lam7n11 () Int)
(declare-fun lam7n12 () Int)
(declare-fun lam7n13 () Int)
(declare-fun lam7n9 () Int)
(declare-fun lam5n0 () Int)
(declare-fun lam5n1 () Int)
(declare-fun lam5n2 () Int)
(declare-fun lam5n3 () Int)
(declare-fun lam5n4 () Int)
(declare-fun lam5n5 () Int)
(declare-fun lam5n6 () Int)
(declare-fun lam5n7 () Int)
(declare-fun lam5n8 () Int)
(declare-fun lam5n14 () Int)
(declare-fun lam5n15 () Int)
(declare-fun lam5n10 () Int)
(declare-fun lam5n11 () Int)
(declare-fun lam5n12 () Int)
(declare-fun lam5n13 () Int)
(declare-fun lam5n9 () Int)
(assert ( and ( <= ( - 143 ) Nl2arg11 ) ( <= Nl2arg11 143 ) ( <= ( - 143 ) Nl2arg21 ) ( <= Nl2arg21 143 ) ( <= ( - 143 ) Nl2arg31 ) ( <= Nl2arg31 143 ) ( <= ( - 143 ) Nl2arg41 ) ( <= Nl2arg41 143 ) ( <= ( - 143 ) Nl2arg51 ) ( <= Nl2arg51 143 ) ( <= ( - 143 ) Nl2arg81 ) ( <= Nl2arg81 143 ) ( <= ( - 143 ) Nl2arg91 ) ( <= Nl2arg91 143 ) ( <= ( - 143 ) Nl2arg101 ) ( <= Nl2arg101 143 ) ( <= ( - 143 ) Nl2arg111 ) ( <= Nl2arg111 143 ) ( <= ( - 143 ) Nl2arg121 ) ( <= Nl2arg121 143 ) ( <= ( - 143 ) Nl2arg131 ) ( <= Nl2arg131 143 ) ( <= ( - 143 ) Nl2arg141 ) ( <= Nl2arg141 143 ) ( <= ( - 143 ) Nl2arg151 ) ( <= Nl2arg151 143 ) ( <= ( - 143 ) Nl2arg161 ) ( <= Nl2arg161 143 ) ( <= ( - 143 ) Nl2arg171 ) ( <= Nl2arg171 143 ) ( <= ( - 143 ) Nl2arg181 ) ( <= Nl2arg181 143 ) ( <= ( - 143 ) Nl2arg191 ) ( <= Nl2arg191 143 ) ( <= ( - 143 ) Nl2arg12 ) ( <= Nl2arg12 143 ) ( <= ( - 143 ) Nl2arg22 ) ( <= Nl2arg22 143 ) ( <= ( - 143 ) Nl2arg32 ) ( <= Nl2arg32 143 ) ( <= ( - 143 ) Nl2arg42 ) ( <= Nl2arg42 143 ) ( <= ( - 143 ) Nl2arg52 ) ( <= Nl2arg52 143 ) ( <= ( - 143 ) Nl2arg82 ) ( <= Nl2arg82 143 ) ( <= ( - 143 ) Nl2arg92 ) ( <= Nl2arg92 143 ) ( <= ( - 143 ) Nl2arg102 ) ( <= Nl2arg102 143 ) ( <= ( - 143 ) Nl2arg112 ) ( <= Nl2arg112 143 ) ( <= ( - 143 ) Nl2arg122 ) ( <= Nl2arg122 143 ) ( <= ( - 143 ) Nl2arg132 ) ( <= Nl2arg132 143 ) ( <= ( - 143 ) Nl2arg142 ) ( <= Nl2arg142 143 ) ( <= ( - 143 ) Nl2arg152 ) ( <= Nl2arg152 143 ) ( <= ( - 143 ) Nl2arg162 ) ( <= Nl2arg162 143 ) ( <= ( - 143 ) Nl2arg172 ) ( <= Nl2arg172 143 ) ( <= ( - 143 ) Nl2arg182 ) ( <= Nl2arg182 143 ) ( <= ( - 143 ) Nl2arg192 ) ( <= Nl2arg192 143 ) ))
(assert ( or ( and ( >= lam0n0 0 ) ( >= lam0n1 0 ) ( >= lam0n2 0 ) ( >= lam0n3 0 ) ( >= lam0n4 0 ) ( >= lam0n5 0 ) ( >= lam0n6 0 ) ( >= lam0n7 0 ) ( >= lam0n8 0 ) ( >= lam0n14 0 ) ( >= lam0n15 0 ) ( > ( + ( * 1 lam0n0 ) ( * 1 lam0n1 ) ( * 2 lam0n5 ) ( * 145 lam0n6 ) ( * 145 lam0n7 ) ( * 145 lam0n8 ) ( * ( - 11 ) lam0n10 ) ( * ( - 13 ) lam0n11 ) ( * ( - 120 ) lam0n12 ) ( * ( - 143 ) lam0n13 ) ( * Nl2CT1 lam0n14 ) ( * Nl2CT2 lam0n15 ) ( - 1 ) ) 0 ) ( = ( + ( * ( - 1 ) lam0n0 ) ( * ( - 1 ) lam0n2 ) ( * ( - 1 ) lam0n3 ) ( * ( - 1 ) lam0n4 ) ( * ( - 1 ) lam0n5 ) ( * ( - 1 ) lam0n6 ) ( * Nl2arg11 lam0n14 ) ( * Nl2arg12 lam0n15 ) ) 0 ) ( = ( + ( * Nl2arg21 lam0n14 ) ( * Nl2arg22 lam0n15 ) ) 0 ) ( = ( + ( * Nl2arg31 lam0n14 ) ( * Nl2arg32 lam0n15 ) ) 0 ) ( = ( + ( * Nl2arg41 lam0n14 ) ( * Nl2arg42 lam0n15 ) ) 0 ) ( = ( + ( * ( - 1 ) lam0n1 ) ( * Nl2arg51 lam0n14 ) ( * Nl2arg52 lam0n15 ) ) 0 ) ( = ( + ( * 1 lam0n0 ) ( * ( - 1 ) lam0n2 ) ( * 1 lam0n10 ) ( * Nl2arg81 lam0n14 ) ( * Nl2arg82 lam0n15 ) ) 0 ) ( = ( + ( * 1 lam0n0 ) ( * ( - 1 ) lam0n2 ) ( * 1 lam0n11 ) ( * Nl2arg91 lam0n14 ) ( * Nl2arg92 lam0n15 ) ) 0 ) ( = ( + ( * 1 lam0n0 ) ( * ( - 1 ) lam0n2 ) ( * 1 lam0n12 ) ( * Nl2arg101 lam0n14 ) ( * Nl2arg102 lam0n15 ) ) 0 ) ( = ( + ( * 1 lam0n0 ) ( * 1 lam0n2 ) ( * 1 lam0n5 ) ( * Nl2arg111 lam0n14 ) ( * Nl2arg112 lam0n15 ) ) 0 ) ( = ( + ( * 1 lam0n9 ) ( * Nl2arg121 lam0n14 ) ( * Nl2arg122 lam0n15 ) ) 0 ) ( = ( + ( * ( - 1 ) lam0n0 ) ( * 1 lam0n2 ) ( * 1 lam0n13 ) ( * Nl2arg131 lam0n14 ) ( * Nl2arg132 lam0n15 ) ) 0 ) ( = ( + ( * Nl2arg141 lam0n14 ) ( * Nl2arg142 lam0n15 ) ) 0 ) ( = ( + ( * Nl2arg151 lam0n14 ) ( * Nl2arg152 lam0n15 ) ) 0 ) ( = ( + ( * Nl2arg161 lam0n14 ) ( * Nl2arg162 lam0n15 ) ) 0 ) ( = ( + ( * Nl2arg171 lam0n14 ) ( * Nl2arg172 lam0n15 ) ) 0 ) ( = ( + ( * Nl2arg181 lam0n14 ) ( * Nl2arg182 lam0n15 ) ) 0 ) ( = ( + ( * Nl2arg191 lam0n14 ) ( * Nl2arg192 lam0n15 ) ) 0 ) ( = ( + ( * 1 lam0n3 ) ( * ( - 1 ) lam0n7 ) ) 0 ) ( = ( + ( * 1 lam0n4 ) ( * ( - 1 ) lam0n8 ) ) 0 ) ) ( and ( >= lam1n0 0 ) ( >= lam1n1 0 ) ( >= lam1n2 0 ) ( >= lam1n3 0 ) ( >= lam1n4 0 ) ( >= lam1n5 0 ) ( >= lam1n6 0 ) ( >= lam1n7 0 ) ( >= lam1n8 0 ) ( >= lam1n14 0 ) ( >= lam1n15 0 ) ( > ( + ( * 1 lam1n0 ) ( * 1 lam1n1 ) ( * 2 lam1n5 ) ( * 145 lam1n6 ) ( * 145 lam1n7 ) ( * 145 lam1n8 ) ( * ( - 11 ) lam1n10 ) ( * ( - 13 ) lam1n11 ) ( * ( - 120 ) lam1n12 ) ( * ( - 143 ) lam1n13 ) ( * Nl2CT1 lam1n14 ) ( * Nl2CT2 lam1n15 ) ( - 1 ( + ( + ( + ( + ( + ( + ( + ( + ( + ( + ( + ( + ( + ( + ( + ( + Nl2CT1 ( * Nl2arg11 0 ) ) ( * Nl2arg21 0 ) ) ( * Nl2arg31 0 ) ) ( * Nl2arg41 0 ) ) ( * Nl2arg51 0 ) ) ( * Nl2arg81 11 ) ) ( * Nl2arg91 13 ) ) ( * Nl2arg101 120 ) ) ( * Nl2arg121 0 ) ) ( * Nl2arg131 143 ) ) ( * Nl2arg141 0 ) ) ( * Nl2arg151 0 ) ) ( * Nl2arg161 0 ) ) ( * Nl2arg171 0 ) ) ( * Nl2arg181 0 ) ) ( * Nl2arg191 0 ) ) ) ) 0 ) ( = ( + ( * ( - 1 ) lam1n0 ) ( * ( - 1 ) lam1n2 ) ( * ( - 1 ) lam1n3 ) ( * ( - 1 ) lam1n4 ) ( * ( - 1 ) lam1n5 ) ( * ( - 1 ) lam1n6 ) ( * Nl2arg11 lam1n14 ) ( * Nl2arg12 lam1n15 ) ) 0 ) ( = ( + ( * Nl2arg21 lam1n14 ) ( * Nl2arg22 lam1n15 ) ) 0 ) ( = ( + ( * Nl2arg31 lam1n14 ) ( * Nl2arg32 lam1n15 ) ) 0 ) ( = ( + ( * Nl2arg41 lam1n14 ) ( * Nl2arg42 lam1n15 ) ( - ( + 0 ( * Nl2arg31 1 ) ) ) ) 0 ) ( = ( + ( * ( - 1 ) lam1n1 ) ( * Nl2arg51 lam1n14 ) ( * Nl2arg52 lam1n15 ) ( - ( + 0 ( * Nl2arg21 1 ) ) ) ) 0 ) ( = ( + ( * 1 lam1n0 ) ( * ( - 1 ) lam1n2 ) ( * 1 lam1n10 ) ( * Nl2arg81 lam1n14 ) ( * Nl2arg82 lam1n15 ) ) 0 ) ( = ( + ( * 1 lam1n0 ) ( * ( - 1 ) lam1n2 ) ( * 1 lam1n11 ) ( * Nl2arg91 lam1n14 ) ( * Nl2arg92 lam1n15 ) ) 0 ) ( = ( + ( * 1 lam1n0 ) ( * ( - 1 ) lam1n2 ) ( * 1 lam1n12 ) ( * Nl2arg101 lam1n14 ) ( * Nl2arg102 lam1n15 ) ) 0 ) ( = ( + ( * 1 lam1n0 ) ( * 1 lam1n2 ) ( * 1 lam1n5 ) ( * Nl2arg111 lam1n14 ) ( * Nl2arg112 lam1n15 ) ( - ( + 0 Nl2arg111 ) ) ) 0 ) ( = ( + ( * 1 lam1n9 ) ( * Nl2arg121 lam1n14 ) ( * Nl2arg122 lam1n15 ) ) 0 ) ( = ( + ( * ( - 1 ) lam1n0 ) ( * 1 lam1n2 ) ( * 1 lam1n13 ) ( * Nl2arg131 lam1n14 ) ( * Nl2arg132 lam1n15 ) ) 0 ) ( = ( + ( * Nl2arg141 lam1n14 ) ( * Nl2arg142 lam1n15 ) ) 0 ) ( = ( + ( * Nl2arg151 lam1n14 ) ( * Nl2arg152 lam1n15 ) ) 0 ) ( = ( + ( * Nl2arg161 lam1n14 ) ( * Nl2arg162 lam1n15 ) ) 0 ) ( = ( + ( * Nl2arg171 lam1n14 ) ( * Nl2arg172 lam1n15 ) ) 0 ) ( = ( + ( * Nl2arg181 lam1n14 ) ( * Nl2arg182 lam1n15 ) ) 0 ) ( = ( + ( * Nl2arg191 lam1n14 ) ( * Nl2arg192 lam1n15 ) ) 0 ) ( = ( + ( * 1 lam1n3 ) ( * ( - 1 ) lam1n7 ) ) 0 ) ( = ( + ( * 1 lam1n4 ) ( * ( - 1 ) lam1n8 ) ( - ( + 0 ( * Nl2arg11 1 ) ) ) ) 0 ) ( = ( - ( + 0 ( * Nl2arg141 1 ) ) ) 0 ) ( = ( - ( + 0 ( * Nl2arg151 1 ) ) ) 0 ) ( = ( - ( + 0 ( * Nl2arg161 1 ) ) ) 0 ) ( = ( - ( + 0 ( * Nl2arg171 1 ) ) ) 0 ) ( = ( - ( + 0 ( * Nl2arg181 1 ) ) ) 0 ) ( = ( - ( + 0 ( * Nl2arg191 1 ) ) ) 0 ) ( = ( - ( + 0 ( * Nl2arg41 1 ) ) ) 0 ) ( = ( - ( + 0 ( * Nl2arg51 1 ) ) ) 0 ) ) ))
(assert ( or ( and ( >= lam0n0 0 ) ( >= lam0n1 0 ) ( >= lam0n2 0 ) ( >= lam0n3 0 ) ( >= lam0n4 0 ) ( >= lam0n5 0 ) ( >= lam0n6 0 ) ( >= lam0n7 0 ) ( >= lam0n8 0 ) ( >= lam0n14 0 ) ( >= lam0n15 0 ) ( > ( + ( * 1 lam0n0 ) ( * 1 lam0n1 ) ( * 2 lam0n5 ) ( * 145 lam0n6 ) ( * 145 lam0n7 ) ( * 145 lam0n8 ) ( * ( - 11 ) lam0n10 ) ( * ( - 13 ) lam0n11 ) ( * ( - 120 ) lam0n12 ) ( * ( - 143 ) lam0n13 ) ( * Nl2CT1 lam0n14 ) ( * Nl2CT2 lam0n15 ) ( - 1 ) ) 0 ) ( = ( + ( * ( - 1 ) lam0n0 ) ( * ( - 1 ) lam0n2 ) ( * ( - 1 ) lam0n3 ) ( * ( - 1 ) lam0n4 ) ( * ( - 1 ) lam0n5 ) ( * ( - 1 ) lam0n6 ) ( * Nl2arg11 lam0n14 ) ( * Nl2arg12 lam0n15 ) ) 0 ) ( = ( + ( * Nl2arg21 lam0n14 ) ( * Nl2arg22 lam0n15 ) ) 0 ) ( = ( + ( * Nl2arg31 lam0n14 ) ( * Nl2arg32 lam0n15 ) ) 0 ) ( = ( + ( * Nl2arg41 lam0n14 ) ( * Nl2arg42 lam0n15 ) ) 0 ) ( = ( + ( * ( - 1 ) lam0n1 ) ( * Nl2arg51 lam0n14 ) ( * Nl2arg52 lam0n15 ) ) 0 ) ( = ( + ( * 1 lam0n0 ) ( * ( - 1 ) lam0n2 ) ( * 1 lam0n10 ) ( * Nl2arg81 lam0n14 ) ( * Nl2arg82 lam0n15 ) ) 0 ) ( = ( + ( * 1 lam0n0 ) ( * ( - 1 ) lam0n2 ) ( * 1 lam0n11 ) ( * Nl2arg91 lam0n14 ) ( * Nl2arg92 lam0n15 ) ) 0 ) ( = ( + ( * 1 lam0n0 ) ( * ( - 1 ) lam0n2 ) ( * 1 lam0n12 ) ( * Nl2arg101 lam0n14 ) ( * Nl2arg102 lam0n15 ) ) 0 ) ( = ( + ( * 1 lam0n0 ) ( * 1 lam0n2 ) ( * 1 lam0n5 ) ( * Nl2arg111 lam0n14 ) ( * Nl2arg112 lam0n15 ) ) 0 ) ( = ( + ( * 1 lam0n9 ) ( * Nl2arg121 lam0n14 ) ( * Nl2arg122 lam0n15 ) ) 0 ) ( = ( + ( * ( - 1 ) lam0n0 ) ( * 1 lam0n2 ) ( * 1 lam0n13 ) ( * Nl2arg131 lam0n14 ) ( * Nl2arg132 lam0n15 ) ) 0 ) ( = ( + ( * Nl2arg141 lam0n14 ) ( * Nl2arg142 lam0n15 ) ) 0 ) ( = ( + ( * Nl2arg151 lam0n14 ) ( * Nl2arg152 lam0n15 ) ) 0 ) ( = ( + ( * Nl2arg161 lam0n14 ) ( * Nl2arg162 lam0n15 ) ) 0 ) ( = ( + ( * Nl2arg171 lam0n14 ) ( * Nl2arg172 lam0n15 ) ) 0 ) ( = ( + ( * Nl2arg181 lam0n14 ) ( * Nl2arg182 lam0n15 ) ) 0 ) ( = ( + ( * Nl2arg191 lam0n14 ) ( * Nl2arg192 lam0n15 ) ) 0 ) ( = ( + ( * 1 lam0n3 ) ( * ( - 1 ) lam0n7 ) ) 0 ) ( = ( + ( * 1 lam0n4 ) ( * ( - 1 ) lam0n8 ) ) 0 ) ) ( and ( >= lam2n0 0 ) ( >= lam2n1 0 ) ( >= lam2n2 0 ) ( >= lam2n3 0 ) ( >= lam2n4 0 ) ( >= lam2n5 0 ) ( >= lam2n6 0 ) ( >= lam2n7 0 ) ( >= lam2n8 0 ) ( >= lam2n14 0 ) ( >= lam2n15 0 ) ( > ( + ( * 1 lam2n0 ) ( * 1 lam2n1 ) ( * 2 lam2n5 ) ( * 145 lam2n6 ) ( * 145 lam2n7 ) ( * 145 lam2n8 ) ( * ( - 11 ) lam2n10 ) ( * ( - 13 ) lam2n11 ) ( * ( - 120 ) lam2n12 ) ( * ( - 143 ) lam2n13 ) ( * Nl2CT1 lam2n14 ) ( * Nl2CT2 lam2n15 ) ( - 1 ( + ( + ( + ( + ( + ( + ( + ( + ( + ( + ( + ( + ( + ( + ( + ( + Nl2CT2 ( * Nl2arg12 0 ) ) ( * Nl2arg22 0 ) ) ( * Nl2arg32 0 ) ) ( * Nl2arg42 0 ) ) ( * Nl2arg52 0 ) ) ( * Nl2arg82 11 ) ) ( * Nl2arg92 13 ) ) ( * Nl2arg102 120 ) ) ( * Nl2arg122 0 ) ) ( * Nl2arg132 143 ) ) ( * Nl2arg142 0 ) ) ( * Nl2arg152 0 ) ) ( * Nl2arg162 0 ) ) ( * Nl2arg172 0 ) ) ( * Nl2arg182 0 ) ) ( * Nl2arg192 0 ) ) ) ) 0 ) ( = ( + ( * ( - 1 ) lam2n0 ) ( * ( - 1 ) lam2n2 ) ( * ( - 1 ) lam2n3 ) ( * ( - 1 ) lam2n4 ) ( * ( - 1 ) lam2n5 ) ( * ( - 1 ) lam2n6 ) ( * Nl2arg11 lam2n14 ) ( * Nl2arg12 lam2n15 ) ) 0 ) ( = ( + ( * Nl2arg21 lam2n14 ) ( * Nl2arg22 lam2n15 ) ) 0 ) ( = ( + ( * Nl2arg31 lam2n14 ) ( * Nl2arg32 lam2n15 ) ) 0 ) ( = ( + ( * Nl2arg41 lam2n14 ) ( * Nl2arg42 lam2n15 ) ( - ( + 0 ( * Nl2arg32 1 ) ) ) ) 0 ) ( = ( + ( * ( - 1 ) lam2n1 ) ( * Nl2arg51 lam2n14 ) ( * Nl2arg52 lam2n15 ) ( - ( + 0 ( * Nl2arg22 1 ) ) ) ) 0 ) ( = ( + ( * 1 lam2n0 ) ( * ( - 1 ) lam2n2 ) ( * 1 lam2n10 ) ( * Nl2arg81 lam2n14 ) ( * Nl2arg82 lam2n15 ) ) 0 ) ( = ( + ( * 1 lam2n0 ) ( * ( - 1 ) lam2n2 ) ( * 1 lam2n11 ) ( * Nl2arg91 lam2n14 ) ( * Nl2arg92 lam2n15 ) ) 0 ) ( = ( + ( * 1 lam2n0 ) ( * ( - 1 ) lam2n2 ) ( * 1 lam2n12 ) ( * Nl2arg101 lam2n14 ) ( * Nl2arg102 lam2n15 ) ) 0 ) ( = ( + ( * 1 lam2n0 ) ( * 1 lam2n2 ) ( * 1 lam2n5 ) ( * Nl2arg111 lam2n14 ) ( * Nl2arg112 lam2n15 ) ( - ( + 0 Nl2arg112 ) ) ) 0 ) ( = ( + ( * 1 lam2n9 ) ( * Nl2arg121 lam2n14 ) ( * Nl2arg122 lam2n15 ) ) 0 ) ( = ( + ( * ( - 1 ) lam2n0 ) ( * 1 lam2n2 ) ( * 1 lam2n13 ) ( * Nl2arg131 lam2n14 ) ( * Nl2arg132 lam2n15 ) ) 0 ) ( = ( + ( * Nl2arg141 lam2n14 ) ( * Nl2arg142 lam2n15 ) ) 0 ) ( = ( + ( * Nl2arg151 lam2n14 ) ( * Nl2arg152 lam2n15 ) ) 0 ) ( = ( + ( * Nl2arg161 lam2n14 ) ( * Nl2arg162 lam2n15 ) ) 0 ) ( = ( + ( * Nl2arg171 lam2n14 ) ( * Nl2arg172 lam2n15 ) ) 0 ) ( = ( + ( * Nl2arg181 lam2n14 ) ( * Nl2arg182 lam2n15 ) ) 0 ) ( = ( + ( * Nl2arg191 lam2n14 ) ( * Nl2arg192 lam2n15 ) ) 0 ) ( = ( + ( * 1 lam2n3 ) ( * ( - 1 ) lam2n7 ) ) 0 ) ( = ( + ( * 1 lam2n4 ) ( * ( - 1 ) lam2n8 ) ( - ( + 0 ( * Nl2arg12 1 ) ) ) ) 0 ) ( = ( - ( + 0 ( * Nl2arg142 1 ) ) ) 0 ) ( = ( - ( + 0 ( * Nl2arg152 1 ) ) ) 0 ) ( = ( - ( + 0 ( * Nl2arg162 1 ) ) ) 0 ) ( = ( - ( + 0 ( * Nl2arg172 1 ) ) ) 0 ) ( = ( - ( + 0 ( * Nl2arg182 1 ) ) ) 0 ) ( = ( - ( + 0 ( * Nl2arg192 1 ) ) ) 0 ) ( = ( - ( + 0 ( * Nl2arg42 1 ) ) ) 0 ) ( = ( - ( + 0 ( * Nl2arg52 1 ) ) ) 0 ) ) ))
(assert ( and ( <= ( + 1 ( * ( - 1 ) undef1450 ) ) 0 ) ( not ( <= ( + ( - 1 ) undef20 ( * ( - 1 ) undef30 ) ) 0 ) ) ( <= ( + 145 ( * ( - 1 ) undef20 ) ) 0 ) ( <= ( + ( + ( + ( + ( + ( + ( + ( + ( + ( + ( + ( + ( + ( + ( + ( + ( + ( + Nl2CT1 ( * Nl2arg11 0 ) ) ( * Nl2arg21 0 ) ) ( * Nl2arg31 1 ) ) ( * Nl2arg41 0 ) ) ( * Nl2arg51 120 ) ) ( * Nl2arg81 11 ) ) ( * Nl2arg91 13 ) ) ( * Nl2arg101 120 ) ) ( * Nl2arg111 0 ) ) ( * Nl2arg121 0 ) ) ( * Nl2arg131 143 ) ) ( * Nl2arg141 0 ) ) ( * Nl2arg151 0 ) ) ( * Nl2arg161 0 ) ) ( * Nl2arg171 0 ) ) ( * Nl2arg181 0 ) ) ( * Nl2arg191 0 ) ) ( * ( + 0 ( * Nl2arg11 1 ) ) undef20 ) ( * ( + ( + 0 ( * Nl2arg21 1 ) ) ( * Nl2arg111 1 ) ) undef30 ) ( * ( + 0 ( * Nl2arg141 1 ) ) undef33 ) ( * ( + 0 ( * Nl2arg151 1 ) ) undef34 ) ( * ( + 0 ( * Nl2arg161 1 ) ) undef35 ) ( * ( + 0 ( * Nl2arg171 1 ) ) undef36 ) ( * ( + 0 ( * Nl2arg181 1 ) ) undef37 ) ( * ( + 0 ( * Nl2arg191 1 ) ) undef38 ) ) 0 ) ( <= ( + ( + ( + ( + ( + ( + ( + ( + ( + ( + ( + ( + ( + ( + ( + ( + ( + ( + Nl2CT2 ( * Nl2arg12 0 ) ) ( * Nl2arg22 0 ) ) ( * Nl2arg32 1 ) ) ( * Nl2arg42 0 ) ) ( * Nl2arg52 120 ) ) ( * Nl2arg82 11 ) ) ( * Nl2arg92 13 ) ) ( * Nl2arg102 120 ) ) ( * Nl2arg112 0 ) ) ( * Nl2arg122 0 ) ) ( * Nl2arg132 143 ) ) ( * Nl2arg142 0 ) ) ( * Nl2arg152 0 ) ) ( * Nl2arg162 0 ) ) ( * Nl2arg172 0 ) ) ( * Nl2arg182 0 ) ) ( * Nl2arg192 0 ) ) ( * ( + 0 ( * Nl2arg12 1 ) ) undef20 ) ( * ( + ( + 0 ( * Nl2arg22 1 ) ) ( * Nl2arg112 1 ) ) undef30 ) ( * ( + 0 ( * Nl2arg142 1 ) ) undef33 ) ( * ( + 0 ( * Nl2arg152 1 ) ) undef34 ) ( * ( + 0 ( * Nl2arg162 1 ) ) undef35 ) ( * ( + 0 ( * Nl2arg172 1 ) ) undef36 ) ( * ( + 0 ( * Nl2arg182 1 ) ) undef37 ) ( * ( + 0 ( * Nl2arg192 1 ) ) undef38 ) ) 0 ) ))
(assert ( or ( and ( and ( >= lam8n0 0 ) ( >= lam8n1 0 ) ( >= lam8n2 0 ) ( >= lam8n3 0 ) ( >= lam8n4 0 ) ( >= lam8n5 0 ) ( >= lam8n6 0 ) ( >= lam8n7 0 ) ( >= lam8n8 0 ) ( >= lam8n14 0 ) ( >= lam8n15 0 ) ( > ( + ( * 1 lam8n0 ) ( * 1 lam8n1 ) ( * 2 lam8n5 ) ( * 145 lam8n6 ) ( * 145 lam8n7 ) ( * 145 lam8n8 ) ( * ( - 11 ) lam8n10 ) ( * ( - 13 ) lam8n11 ) ( * ( - 120 ) lam8n12 ) ( * ( - 143 ) lam8n13 ) ( * Nl2CT1 lam8n14 ) ( * Nl2CT2 lam8n15 ) ( - 1 ( - ( + ( + ( + ( + ( + ( + ( + ( + ( + ( + ( + ( + ( + ( + ( + ( + RFN1_CT ( * RFN1_arg1 0 ) ) ( * RFN1_arg2 0 ) ) ( * RFN1_arg3 0 ) ) ( * RFN1_arg4 0 ) ) ( * RFN1_arg5 0 ) ) ( * RFN1_arg8 11 ) ) ( * RFN1_arg9 13 ) ) ( * RFN1_arg10 120 ) ) ( * RFN1_arg12 0 ) ) ( * RFN1_arg13 143 ) ) ( * RFN1_arg14 0 ) ) ( * RFN1_arg15 0 ) ) ( * RFN1_arg16 0 ) ) ( * RFN1_arg17 0 ) ) ( * RFN1_arg18 0 ) ) ( * RFN1_arg19 0 ) ) RFN1_CT ) ) ) 0 ) ( = ( + ( * ( - 1 ) lam8n0 ) ( * ( - 1 ) lam8n2 ) ( * ( - 1 ) lam8n3 ) ( * ( - 1 ) lam8n4 ) ( * ( - 1 ) lam8n5 ) ( * ( - 1 ) lam8n6 ) ( * Nl2arg11 lam8n14 ) ( * Nl2arg12 lam8n15 ) ( - ( - RFN1_arg1 ) ) ) 0 ) ( = ( + ( * Nl2arg21 lam8n14 ) ( * Nl2arg22 lam8n15 ) ( - ( - RFN1_arg2 ) ) ) 0 ) ( = ( + ( * Nl2arg31 lam8n14 ) ( * Nl2arg32 lam8n15 ) ( - ( - RFN1_arg3 ) ) ) 0 ) ( = ( + ( * Nl2arg41 lam8n14 ) ( * Nl2arg42 lam8n15 ) ( - ( - ( + 0 ( * RFN1_arg3 1 ) ) RFN1_arg4 ) ) ) 0 ) ( = ( + ( * ( - 1 ) lam8n1 ) ( * Nl2arg51 lam8n14 ) ( * Nl2arg52 lam8n15 ) ( - ( - ( + 0 ( * RFN1_arg2 1 ) ) RFN1_arg5 ) ) ) 0 ) ( = ( + ( * 1 lam8n0 ) ( * ( - 1 ) lam8n2 ) ( * 1 lam8n10 ) ( * Nl2arg81 lam8n14 ) ( * Nl2arg82 lam8n15 ) ( - ( - RFN1_arg8 ) ) ) 0 ) ( = ( + ( * 1 lam8n0 ) ( * ( - 1 ) lam8n2 ) ( * 1 lam8n11 ) ( * Nl2arg91 lam8n14 ) ( * Nl2arg92 lam8n15 ) ( - ( - RFN1_arg9 ) ) ) 0 ) ( = ( + ( * 1 lam8n0 ) ( * ( - 1 ) lam8n2 ) ( * 1 lam8n12 ) ( * Nl2arg101 lam8n14 ) ( * Nl2arg102 lam8n15 ) ( - ( - RFN1_arg10 ) ) ) 0 ) ( = ( + ( * 1 lam8n0 ) ( * 1 lam8n2 ) ( * 1 lam8n5 ) ( * Nl2arg111 lam8n14 ) ( * Nl2arg112 lam8n15 ) ( - ( - ( + 0 RFN1_arg11 ) RFN1_arg11 ) ) ) 0 ) ( = ( + ( * 1 lam8n9 ) ( * Nl2arg121 lam8n14 ) ( * Nl2arg122 lam8n15 ) ( - ( - RFN1_arg12 ) ) ) 0 ) ( = ( + ( * ( - 1 ) lam8n0 ) ( * 1 lam8n2 ) ( * 1 lam8n13 ) ( * Nl2arg131 lam8n14 ) ( * Nl2arg132 lam8n15 ) ( - ( - RFN1_arg13 ) ) ) 0 ) ( = ( + ( * Nl2arg141 lam8n14 ) ( * Nl2arg142 lam8n15 ) ( - ( - RFN1_arg14 ) ) ) 0 ) ( = ( + ( * Nl2arg151 lam8n14 ) ( * Nl2arg152 lam8n15 ) ( - ( - RFN1_arg15 ) ) ) 0 ) ( = ( + ( * Nl2arg161 lam8n14 ) ( * Nl2arg162 lam8n15 ) ( - ( - RFN1_arg16 ) ) ) 0 ) ( = ( + ( * Nl2arg171 lam8n14 ) ( * Nl2arg172 lam8n15 ) ( - ( - RFN1_arg17 ) ) ) 0 ) ( = ( + ( * Nl2arg181 lam8n14 ) ( * Nl2arg182 lam8n15 ) ( - ( - RFN1_arg18 ) ) ) 0 ) ( = ( + ( * Nl2arg191 lam8n14 ) ( * Nl2arg192 lam8n15 ) ( - ( - RFN1_arg19 ) ) ) 0 ) ( = ( + ( * 1 lam8n3 ) ( * ( - 1 ) lam8n7 ) ) 0 ) ( = ( + ( * 1 lam8n4 ) ( * ( - 1 ) lam8n8 ) ( - ( + 0 ( * RFN1_arg1 1 ) ) ) ) 0 ) ( = ( - ( + 0 ( * RFN1_arg14 1 ) ) ) 0 ) ( = ( - ( + 0 ( * RFN1_arg15 1 ) ) ) 0 ) ( = ( - ( + 0 ( * RFN1_arg16 1 ) ) ) 0 ) ( = ( - ( + 0 ( * RFN1_arg17 1 ) ) ) 0 ) ( = ( - ( + 0 ( * RFN1_arg18 1 ) ) ) 0 ) ( = ( - ( + 0 ( * RFN1_arg19 1 ) ) ) 0 ) ( = ( - ( + 0 ( * RFN1_arg4 1 ) ) ) 0 ) ( = ( - ( + 0 ( * RFN1_arg5 1 ) ) ) 0 ) ) ( and ( and ( >= lam6n0 0 ) ( >= lam6n1 0 ) ( >= lam6n2 0 ) ( >= lam6n3 0 ) ( >= lam6n4 0 ) ( >= lam6n5 0 ) ( >= lam6n6 0 ) ( >= lam6n7 0 ) ( >= lam6n8 0 ) ( >= lam6n14 0 ) ( >= lam6n15 0 ) ( > ( + ( * 1 lam6n0 ) ( * 1 lam6n1 ) ( * 2 lam6n5 ) ( * 145 lam6n6 ) ( * 145 lam6n7 ) ( * 145 lam6n8 ) ( * ( - 11 ) lam6n10 ) ( * ( - 13 ) lam6n11 ) ( * ( - 120 ) lam6n12 ) ( * ( - 143 ) lam6n13 ) ( * Nl2CT1 lam6n14 ) ( * Nl2CT2 lam6n15 ) ( - 1 ( - RFN1_CT ) ) ) 0 ) ( = ( + ( * ( - 1 ) lam6n0 ) ( * ( - 1 ) lam6n2 ) ( * ( - 1 ) lam6n3 ) ( * ( - 1 ) lam6n4 ) ( * ( - 1 ) lam6n5 ) ( * ( - 1 ) lam6n6 ) ( * Nl2arg11 lam6n14 ) ( * Nl2arg12 lam6n15 ) ( - ( - RFN1_arg1 ) ) ) 0 ) ( = ( + ( * Nl2arg21 lam6n14 ) ( * Nl2arg22 lam6n15 ) ( - ( - RFN1_arg2 ) ) ) 0 ) ( = ( + ( * Nl2arg31 lam6n14 ) ( * Nl2arg32 lam6n15 ) ( - ( - RFN1_arg3 ) ) ) 0 ) ( = ( + ( * Nl2arg41 lam6n14 ) ( * Nl2arg42 lam6n15 ) ( - ( - RFN1_arg4 ) ) ) 0 ) ( = ( + ( * ( - 1 ) lam6n1 ) ( * Nl2arg51 lam6n14 ) ( * Nl2arg52 lam6n15 ) ( - ( - RFN1_arg5 ) ) ) 0 ) ( = ( + ( * 1 lam6n0 ) ( * ( - 1 ) lam6n2 ) ( * 1 lam6n10 ) ( * Nl2arg81 lam6n14 ) ( * Nl2arg82 lam6n15 ) ( - ( - RFN1_arg8 ) ) ) 0 ) ( = ( + ( * 1 lam6n0 ) ( * ( - 1 ) lam6n2 ) ( * 1 lam6n11 ) ( * Nl2arg91 lam6n14 ) ( * Nl2arg92 lam6n15 ) ( - ( - RFN1_arg9 ) ) ) 0 ) ( = ( + ( * 1 lam6n0 ) ( * ( - 1 ) lam6n2 ) ( * 1 lam6n12 ) ( * Nl2arg101 lam6n14 ) ( * Nl2arg102 lam6n15 ) ( - ( - RFN1_arg10 ) ) ) 0 ) ( = ( + ( * 1 lam6n0 ) ( * 1 lam6n2 ) ( * 1 lam6n5 ) ( * Nl2arg111 lam6n14 ) ( * Nl2arg112 lam6n15 ) ( - ( - RFN1_arg11 ) ) ) 0 ) ( = ( + ( * 1 lam6n9 ) ( * Nl2arg121 lam6n14 ) ( * Nl2arg122 lam6n15 ) ( - ( - RFN1_arg12 ) ) ) 0 ) ( = ( + ( * ( - 1 ) lam6n0 ) ( * 1 lam6n2 ) ( * 1 lam6n13 ) ( * Nl2arg131 lam6n14 ) ( * Nl2arg132 lam6n15 ) ( - ( - RFN1_arg13 ) ) ) 0 ) ( = ( + ( * Nl2arg141 lam6n14 ) ( * Nl2arg142 lam6n15 ) ( - ( - RFN1_arg14 ) ) ) 0 ) ( = ( + ( * Nl2arg151 lam6n14 ) ( * Nl2arg152 lam6n15 ) ( - ( - RFN1_arg15 ) ) ) 0 ) ( = ( + ( * Nl2arg161 lam6n14 ) ( * Nl2arg162 lam6n15 ) ( - ( - RFN1_arg16 ) ) ) 0 ) ( = ( + ( * Nl2arg171 lam6n14 ) ( * Nl2arg172 lam6n15 ) ( - ( - RFN1_arg17 ) ) ) 0 ) ( = ( + ( * Nl2arg181 lam6n14 ) ( * Nl2arg182 lam6n15 ) ( - ( - RFN1_arg18 ) ) ) 0 ) ( = ( + ( * Nl2arg191 lam6n14 ) ( * Nl2arg192 lam6n15 ) ( - ( - RFN1_arg19 ) ) ) 0 ) ( = ( + ( * 1 lam6n3 ) ( * ( - 1 ) lam6n7 ) ) 0 ) ( = ( + ( * 1 lam6n4 ) ( * ( - 1 ) lam6n8 ) ) 0 ) ) ( and ( >= lam7n0 0 ) ( >= lam7n1 0 ) ( >= lam7n2 0 ) ( >= lam7n3 0 ) ( >= lam7n4 0 ) ( >= lam7n5 0 ) ( >= lam7n6 0 ) ( >= lam7n7 0 ) ( >= lam7n8 0 ) ( >= lam7n14 0 ) ( >= lam7n15 0 ) ( > ( + ( * 1 lam7n0 ) ( * 1 lam7n1 ) ( * 2 lam7n5 ) ( * 145 lam7n6 ) ( * 145 lam7n7 ) ( * 145 lam7n8 ) ( * ( - 11 ) lam7n10 ) ( * ( - 13 ) lam7n11 ) ( * ( - 120 ) lam7n12 ) ( * ( - 143 ) lam7n13 ) ( * Nl2CT1 lam7n14 ) ( * Nl2CT2 lam7n15 ) ( - 1 ( + ( - ( + ( + ( + ( + ( + ( + ( + ( + ( + ( + ( + ( + ( + ( + ( + ( + RFN1_CT ( * RFN1_arg1 0 ) ) ( * RFN1_arg2 0 ) ) ( * RFN1_arg3 0 ) ) ( * RFN1_arg4 0 ) ) ( * RFN1_arg5 0 ) ) ( * RFN1_arg8 11 ) ) ( * RFN1_arg9 13 ) ) ( * RFN1_arg10 120 ) ) ( * RFN1_arg12 0 ) ) ( * RFN1_arg13 143 ) ) ( * RFN1_arg14 0 ) ) ( * RFN1_arg15 0 ) ) ( * RFN1_arg16 0 ) ) ( * RFN1_arg17 0 ) ) ( * RFN1_arg18 0 ) ) ( * RFN1_arg19 0 ) ) RFN1_CT ) 1 ) ) ) 0 ) ( = ( + ( * ( - 1 ) lam7n0 ) ( * ( - 1 ) lam7n2 ) ( * ( - 1 ) lam7n3 ) ( * ( - 1 ) lam7n4 ) ( * ( - 1 ) lam7n5 ) ( * ( - 1 ) lam7n6 ) ( * Nl2arg11 lam7n14 ) ( * Nl2arg12 lam7n15 ) ( - ( - RFN1_arg1 ) ) ) 0 ) ( = ( + ( * Nl2arg21 lam7n14 ) ( * Nl2arg22 lam7n15 ) ( - ( - RFN1_arg2 ) ) ) 0 ) ( = ( + ( * Nl2arg31 lam7n14 ) ( * Nl2arg32 lam7n15 ) ( - ( - RFN1_arg3 ) ) ) 0 ) ( = ( + ( * Nl2arg41 lam7n14 ) ( * Nl2arg42 lam7n15 ) ( - ( - ( + 0 ( * RFN1_arg3 1 ) ) RFN1_arg4 ) ) ) 0 ) ( = ( + ( * ( - 1 ) lam7n1 ) ( * Nl2arg51 lam7n14 ) ( * Nl2arg52 lam7n15 ) ( - ( - ( + 0 ( * RFN1_arg2 1 ) ) RFN1_arg5 ) ) ) 0 ) ( = ( + ( * 1 lam7n0 ) ( * ( - 1 ) lam7n2 ) ( * 1 lam7n10 ) ( * Nl2arg81 lam7n14 ) ( * Nl2arg82 lam7n15 ) ( - ( - RFN1_arg8 ) ) ) 0 ) ( = ( + ( * 1 lam7n0 ) ( * ( - 1 ) lam7n2 ) ( * 1 lam7n11 ) ( * Nl2arg91 lam7n14 ) ( * Nl2arg92 lam7n15 ) ( - ( - RFN1_arg9 ) ) ) 0 ) ( = ( + ( * 1 lam7n0 ) ( * ( - 1 ) lam7n2 ) ( * 1 lam7n12 ) ( * Nl2arg101 lam7n14 ) ( * Nl2arg102 lam7n15 ) ( - ( - RFN1_arg10 ) ) ) 0 ) ( = ( + ( * 1 lam7n0 ) ( * 1 lam7n2 ) ( * 1 lam7n5 ) ( * Nl2arg111 lam7n14 ) ( * Nl2arg112 lam7n15 ) ( - ( - ( + 0 RFN1_arg11 ) RFN1_arg11 ) ) ) 0 ) ( = ( + ( * 1 lam7n9 ) ( * Nl2arg121 lam7n14 ) ( * Nl2arg122 lam7n15 ) ( - ( - RFN1_arg12 ) ) ) 0 ) ( = ( + ( * ( - 1 ) lam7n0 ) ( * 1 lam7n2 ) ( * 1 lam7n13 ) ( * Nl2arg131 lam7n14 ) ( * Nl2arg132 lam7n15 ) ( - ( - RFN1_arg13 ) ) ) 0 ) ( = ( + ( * Nl2arg141 lam7n14 ) ( * Nl2arg142 lam7n15 ) ( - ( - RFN1_arg14 ) ) ) 0 ) ( = ( + ( * Nl2arg151 lam7n14 ) ( * Nl2arg152 lam7n15 ) ( - ( - RFN1_arg15 ) ) ) 0 ) ( = ( + ( * Nl2arg161 lam7n14 ) ( * Nl2arg162 lam7n15 ) ( - ( - RFN1_arg16 ) ) ) 0 ) ( = ( + ( * Nl2arg171 lam7n14 ) ( * Nl2arg172 lam7n15 ) ( - ( - RFN1_arg17 ) ) ) 0 ) ( = ( + ( * Nl2arg181 lam7n14 ) ( * Nl2arg182 lam7n15 ) ( - ( - RFN1_arg18 ) ) ) 0 ) ( = ( + ( * Nl2arg191 lam7n14 ) ( * Nl2arg192 lam7n15 ) ( - ( - RFN1_arg19 ) ) ) 0 ) ( = ( + ( * 1 lam7n3 ) ( * ( - 1 ) lam7n7 ) ) 0 ) ( = ( + ( * 1 lam7n4 ) ( * ( - 1 ) lam7n8 ) ( - ( + 0 ( * RFN1_arg1 1 ) ) ) ) 0 ) ( = ( - ( + 0 ( * RFN1_arg14 1 ) ) ) 0 ) ( = ( - ( + 0 ( * RFN1_arg15 1 ) ) ) 0 ) ( = ( - ( + 0 ( * RFN1_arg16 1 ) ) ) 0 ) ( = ( - ( + 0 ( * RFN1_arg17 1 ) ) ) 0 ) ( = ( - ( + 0 ( * RFN1_arg18 1 ) ) ) 0 ) ( = ( - ( + 0 ( * RFN1_arg19 1 ) ) ) 0 ) ( = ( - ( + 0 ( * RFN1_arg4 1 ) ) ) 0 ) ( = ( - ( + 0 ( * RFN1_arg5 1 ) ) ) 0 ) ) ) ) ( and ( >= lam5n0 0 ) ( >= lam5n1 0 ) ( >= lam5n2 0 ) ( >= lam5n3 0 ) ( >= lam5n4 0 ) ( >= lam5n5 0 ) ( >= lam5n6 0 ) ( >= lam5n7 0 ) ( >= lam5n8 0 ) ( >= lam5n14 0 ) ( >= lam5n15 0 ) ( > ( + ( * 1 lam5n0 ) ( * 1 lam5n1 ) ( * 2 lam5n5 ) ( * 145 lam5n6 ) ( * 145 lam5n7 ) ( * 145 lam5n8 ) ( * ( - 11 ) lam5n10 ) ( * ( - 13 ) lam5n11 ) ( * ( - 120 ) lam5n12 ) ( * ( - 143 ) lam5n13 ) ( * Nl2CT1 lam5n14 ) ( * Nl2CT2 lam5n15 ) ( - 1 ) ) 0 ) ( = ( + ( * ( - 1 ) lam5n0 ) ( * ( - 1 ) lam5n2 ) ( * ( - 1 ) lam5n3 ) ( * ( - 1 ) lam5n4 ) ( * ( - 1 ) lam5n5 ) ( * ( - 1 ) lam5n6 ) ( * Nl2arg11 lam5n14 ) ( * Nl2arg12 lam5n15 ) ) 0 ) ( = ( + ( * Nl2arg21 lam5n14 ) ( * Nl2arg22 lam5n15 ) ) 0 ) ( = ( + ( * Nl2arg31 lam5n14 ) ( * Nl2arg32 lam5n15 ) ) 0 ) ( = ( + ( * Nl2arg41 lam5n14 ) ( * Nl2arg42 lam5n15 ) ) 0 ) ( = ( + ( * ( - 1 ) lam5n1 ) ( * Nl2arg51 lam5n14 ) ( * Nl2arg52 lam5n15 ) ) 0 ) ( = ( + ( * 1 lam5n0 ) ( * ( - 1 ) lam5n2 ) ( * 1 lam5n10 ) ( * Nl2arg81 lam5n14 ) ( * Nl2arg82 lam5n15 ) ) 0 ) ( = ( + ( * 1 lam5n0 ) ( * ( - 1 ) lam5n2 ) ( * 1 lam5n11 ) ( * Nl2arg91 lam5n14 ) ( * Nl2arg92 lam5n15 ) ) 0 ) ( = ( + ( * 1 lam5n0 ) ( * ( - 1 ) lam5n2 ) ( * 1 lam5n12 ) ( * Nl2arg101 lam5n14 ) ( * Nl2arg102 lam5n15 ) ) 0 ) ( = ( + ( * 1 lam5n0 ) ( * 1 lam5n2 ) ( * 1 lam5n5 ) ( * Nl2arg111 lam5n14 ) ( * Nl2arg112 lam5n15 ) ) 0 ) ( = ( + ( * 1 lam5n9 ) ( * Nl2arg121 lam5n14 ) ( * Nl2arg122 lam5n15 ) ) 0 ) ( = ( + ( * ( - 1 ) lam5n0 ) ( * 1 lam5n2 ) ( * 1 lam5n13 ) ( * Nl2arg131 lam5n14 ) ( * Nl2arg132 lam5n15 ) ) 0 ) ( = ( + ( * Nl2arg141 lam5n14 ) ( * Nl2arg142 lam5n15 ) ) 0 ) ( = ( + ( * Nl2arg151 lam5n14 ) ( * Nl2arg152 lam5n15 ) ) 0 ) ( = ( + ( * Nl2arg161 lam5n14 ) ( * Nl2arg162 lam5n15 ) ) 0 ) ( = ( + ( * Nl2arg171 lam5n14 ) ( * Nl2arg172 lam5n15 ) ) 0 ) ( = ( + ( * Nl2arg181 lam5n14 ) ( * Nl2arg182 lam5n15 ) ) 0 ) ( = ( + ( * Nl2arg191 lam5n14 ) ( * Nl2arg192 lam5n15 ) ) 0 ) ( = ( + ( * 1 lam5n3 ) ( * ( - 1 ) lam5n7 ) ) 0 ) ( = ( + ( * 1 lam5n4 ) ( * ( - 1 ) lam5n8 ) ) 0 ) ) ))
(check-sat)
(exit)
